c WARNING: for repeatability, setting FPU to use double precision
d VARIABLES            72522        
d CONSTRAINTS          257064       
c ============================[ Problem Statistics ]=============================
c |                                                                             |
c |  Number of variables:         72522                                         |
c |  Number of clauses:          257064                                         |
c |  Parse time:                   0.04 s                                       |
c |                                                                             |
c ============================[ Search Statistics ]==============================
c | Conflicts |          ORIGINAL         |          LEARNT          | Progress |
c |           |    Vars  Clauses Literals |    Limit  Clauses Lit/Cl |          |
c ===============================================================================
c |       100 |   53245   207434   521701 |    76059       99     16 | 26.581 % |
c |       250 |   53245   207434   521701 |    83665      249     13 | 26.581 % |
c |       475 |   53245   207418   521661 |    92031      469     14 | 26.581 % |
c |       812 |   53245   207418   521661 |   101234      806     17 | 26.581 % |
c |      1318 |   53245   207418   521661 |   111358     1312     15 | 26.581 % |
c |      2077 |   53245   207418   521661 |   122493     2071     17 | 26.581 % |
c |      3216 |   53245   207418   521661 |   134743     3210    111 | 26.581 % |
c |      4924 |   53245   207418   521661 |   148217     4918     86 | 26.581 % |
c |      7486 |   53245   207418   521661 |   163039     7480     68 | 26.581 % |
c |     11330 |   53245   207418   521661 |   179343    11324     60 | 26.581 % |
c |     17096 |   53245   207418   521661 |   197277    17090     54 | 26.581 % |
c ===============================================================================
c restarts              : 93
c conflicts             : 25309          (4391 /sec)
c decisions             : 243330         (0.00 % random) (42213 /sec)
c propagations          : 41911734       (7270839 /sec)
c conflict literals     : 1510520        (9.38 % deleted)
d RESTARTS             93
d FAILURES             25309        
d NODES                243330       
d BACKTRACKS           243330       
d PROPAGATIONS         41911734     
d NOGOODSIZE           59.68 
d MEMORY               30.00 
d TIME                 5.76436 

s SATISFIABLE
